// Strimko Weekly Set 070
n = 5;

streams = 
  [
    [1,2,3,3,3],
    [2,1,1,3,1],
    [2,2,3,1,4],
    [5,2,5,4,4],
    [5,5,5,4,4]
   ];

num_placed = 4;
placed = 
  [
    [1,1,1],
    [2,5,4],
    [4,1,2],
    [5,4,5]
  ];
